0 3890
2401 3757
4802 3651
7203 3562
9604 3485
12005 3434
14406 3375
16807 3337
19208 3312
21609 3293
24010 3273
26411 3267
28812 3246
31213 3232
33614 3226
36015 3218
38416 3207
40817 3201
43218 3195
45619 3177
48020 3159
50421 3143
52822 3137
55223 3135
